p cnf 7230 17
1 -5578 0
-1 -4556 -4908 -5369 5577 0
1 -5582 0
-1 -4898 -5363 5581 0
4556 -5578 0
-5303 -5397 5579 0
5303 -5580 0
5363 -5582 0
4898 -5582 0
4908 -5578 0
-5579 5580 0
-5577 5578 0
-5581 5582 0
5397 -5580 0
5369 -5578 0
5363 -5584 0
1 -5584 0
